
c turning on binary mode checking

c parsing input formula with 5978 variables and 26062 clauses

c finished parsing, read 5414 bytes from proof file

c detected empty clause; start verification via backward checking

c 553 of 26062 clauses in core                            

c 43 of 1165 lemmas in core using 633 resolution steps

c 0 RAT lemmas in core; 0 redundant literals in core lemmas

s VERIFIED

c verification time: 0.063 seconds
